p cnf 13 20
-13 12 10 0
-13 -9 -8 0
13 9 -4 0
-13 -7 4 0
13 -7 1 0
12 8 -1 0
-11 10 -6 0
-11 8 -1 0
11 -6 2 0
-10 -5 -2 0
-10 3 -1 0
-9 -8 -1 0
9 -7 4 0
9 -7 1 0
9 6 5 0
-9 -6 1 0
9 -3 1 0
-8 -7 -5 0
8 7 4 0
-8 6 4 0
